
<<< setup

Tried aggregator 1 time.
LP Presolve eliminated 109 rows and 89 columns.
Reduced LP has 1 rows, 5 columns, and 5 nonzeros.
Presolve time = 0.00 sec. (0.04 ticks)

Iteration log . . .
Iteration:     1   Dual objective     =          1185.872161
main returns 0

<<< main


<<< done

